NAME          STRESS_04
OBJSENSE
 MIN
ROWS
 N  OBJ
 G  C1
 G  C2
 G  C3
 G  C4
 L  C5
 L  C6
 L  C7
 L  C8
 L  C9
 L  C10
 L  C11
COLUMNS
    MARK0000  'MARKER'                 'INTORG'
    X1        OBJ                      4
    X1        C1                       2
    X1        C2                       1
    X1        C5                       2
    X1        C9                       1
    X2        OBJ                      5
    X2        C1                       1
    X2        C3                       2
    X2        C5                       3
    X2        C6                       1
    X3        OBJ                      6
    X3        C2                       3
    X3        C4                       1
    X3        C5                       1
    X3        C7                       1
    X4        OBJ                      3
    X4        C1                       1
    X4        C4                       2
    X4        C6                       1
    X4        C10                      1
    X5        OBJ                      7
    X5        C2                       2
    X5        C3                       1
    X5        C5                       2
    X5        C8                       1
    Z1        OBJ                      8
    Z1        C1                       2
    Z1        C5                       1
    Z1        C9                       1
    Z2        OBJ                      7
    Z2        C2                       2
    Z2        C5                       1
    Z2        C10                      1
    Z3        OBJ                      9
    Z3        C3                       3
    Z3        C5                       1
    Z3        C11                      1
    Z4        OBJ                      6
    Z4        C4                       2
    Z4        C5                       1
    Z4        C11                      1
    MARK0001  'MARKER'                 'INTEND'
    Y1        OBJ                      1
    Y1        C1                       1
    Y1        C6                       1
    Y1        C7                       1
    Y2        OBJ                      2
    Y2        C2                       1
    Y2        C3                       1
    Y2        C8                       1
    Y3        OBJ                      2
    Y3        C4                       1
    Y3        C9                       1
    Y3        C10                      1
RHS
    RHS1      C1                      10
    RHS1      C2                      11
    RHS1      C3                       9
    RHS1      C4                       8
    RHS1      C5                      16
    RHS1      C6                       5
    RHS1      C7                       6
    RHS1      C8                       6
    RHS1      C9                       6
    RHS1      C10                      6
    RHS1      C11                      1
BOUNDS
 UP BND1      X1                       5
 UP BND1      X2                       5
 UP BND1      X3                       5
 UP BND1      X4                       5
 UP BND1      X5                       5
 BV BND1      Z1
 BV BND1      Z2
 BV BND1      Z3
 BV BND1      Z4
 UP BND1      Y1                       4
 UP BND1      Y2                       4
 UP BND1      Y3                       4
ENDATA